N = 11;
H = 5;
T = 2;

avail = array3d(1..N, 1..H, 1..T, [8, 8, 10, 4, 9, 3, 10, 4, 4, 10, 0, 7, 9, 8, 4, 5, 7, 0, 9, 7, 2, 5, 2, 6, 2, 9, 2, 3, 5, 7, 9, 0, 8, 6, 10, 4, 4, 7, 6, 1, 5, 4, 2, 2, 4, 5, 5, 10, 5, 9, 10, 8, 10, 1, 5, 6, 4, 0, 6, 3, 10, 0, 2, 8, 8, 7, 4, 3, 10, 7, 9, 7, 4, 5, 3, 2, 4, 4, 1, 0, 7, 0, 2, 9, 9, 8, 0, 7, 6, 8, 7, 0, 7, 9, 3, 10, 7, 9, 5, 9, 9, 9, 10, 2, 10, 1, 8, 8, 10, 6]);

r = array2d(1..H, 1..T, [0, 1, 3, 1, 6, 5, 6, 4, 5, 1]);
